language Essence 1.3

letting blksize_delta be
        function(1 --> 3, 2 --> 3, 3 --> 3, 4 --> 3, 5 --> 3, 6 --> 3, 7 --> 3, 8 --> 3, 9 --> 3, 10 --> 3, 11 --> 3,
                 12 --> 3, 13 --> 3, 14 --> 3, 15 --> 3, 16 --> 3, 17 --> 3, 18 --> 3, 19 --> 1, 20 --> 3, 21 --> 3,
                 22 --> 3, 23 --> 3, 24 --> 3, 25 --> 3, 26 --> 3, 27 --> 3, 28 --> 3, 29 --> 3, 30 --> 3, 31 --> 3,
                 32 --> 3, 33 --> 3, 34 --> 1, 35 --> 3, 36 --> 3, 37 --> 3, 38 --> 3, 39 --> 3, 40 --> 3, 41 --> 3,
                 42 --> 3)
letting maxcars be
        function(1 --> 10, 2 --> 10, 3 --> 10, 4 --> 10, 5 --> 10, 6 --> 10, 7 --> 10, 8 --> 10, 9 --> 4, 10 --> 10,
                 11 --> 9, 12 --> 10, 13 --> 10, 14 --> 10, 15 --> 10, 16 --> 10, 17 --> 10, 18 --> 10, 19 --> 10,
                 20 --> 10, 21 --> 10, 22 --> 10, 23 --> 9, 24 --> 10, 25 --> 10, 26 --> 10, 27 --> 10, 28 --> 10,
                 29 --> 10, 30 --> 10, 31 --> 10, 32 --> 10, 33 --> 10, 34 --> 10, 35 --> 10, 36 --> 10, 37 --> 10,
                 38 --> 10, 39 --> 10, 40 --> 10, 41 --> 10, 42 --> 10)
letting n_cars be 198
letting n_classes be 2
letting n_options be 42
letting quantity be function(1 --> 99, 2 --> 99)
letting usage be
        relation((1, 1), (1, 2), (1, 3), (1, 4), (1, 5), (1, 6), (1, 7), (1, 9), (1, 10), (1, 11), (1, 13), (1, 14),
                 (1, 15), (1, 16), (1, 17), (1, 18), (1, 20), (1, 21), (1, 22), (1, 23), (1, 24), (1, 25), (1, 26),
                 (1, 27), (1, 28), (1, 29), (1, 30), (1, 31), (1, 32), (1, 33), (1, 34), (1, 35), (1, 36), (1, 37),
                 (1, 38), (1, 39), (1, 40), (2, 8), (2, 12), (2, 19), (2, 41), (2, 42))
$ Visualisation for usage
$  1  1
$  1  2
$  1  3
$  1  4
$  1  5
$  1  6
$  1  7
$  1  9
$  1 10
$  1 11
$  1 13
$  1 14
$  1 15
$  1 16
$  1 17
$  1 18
$  1 20
$  1 21
$  1 22
$  1 23
$  1 24
$  1 25
$  1 26
$  1 27
$  1 28
$  1 29
$  1 30
$  1 31
$  1 32
$  1 33
$  1 34
$  1 35
$  1 36
$  1 37
$  1 38
$  1 39
$  1 40
$  2  8
$  2 12
$  2 19
$  2 41
$  2 42

